2531.68
0 1 2 3 9 12 13 0
0 4 5 6 10 14 15 16 18 29 52 0
0 17 19 20 23 24 25 30 31 0
0 21 22 26 27 28 32 33 34 35 36 41 44 50 0
0 40 42 45 46 48 53 54 55 58 37 11 0
0 43 47 56 57 72 0
0 49 59 60 61 63 64 66 67 71 73 7 0
0 62 65 8 70 0
0 69 74 38 39 68 51 0
